(declare-fun C1 () Real)
(declare-fun C2 () Real)
(declare-fun C3 () Real)
(declare-fun C4 () Real)
(declare-fun C5 () Real)
(declare-fun C6 () Real)
(declare-fun C7 () Real)
(declare-fun C8 () Real)
(declare-fun C9 () Real)
(declare-fun C10 () Real)
(declare-fun y () Real)
(assert ( and ( or  (<=  (+  (* 1 C1)  (* 1 C2)  (* 1 C3)  (* 1 C4)  (* 1 C5)  (* 1 C6)  (* 1 C7)  (* 1 C8)  (* 1 C9)  (* 1 C10) ) 295 )  (<=  (+  (* 2 C1)  (* 1 C2)  (* 1 C3)  (* 1 C4)  (* 1 C5)  (* 1 C6)  (* 1 C7)  (* 1 C8)  (* 1 C9)  (* 1 C10) ) 426 )  (<=  (+  (* 2 C1)  (* 2 C2)  (* 1 C3)  (* 1 C4)  (* 1 C5)  (* 1 C6)  (* 1 C7)  (* 1 C8)  (* 1 C9)  (* 1 C10) ) 590 )  (<=  (+  (* 3 C1)  (* 2 C2)  (* 1 C3)  (* 1 C4)  (* 1 C5)  (* 1 C6)  (* 1 C7)  (* 1 C8)  (* 1 C9)  (* 1 C10) ) 660 )  (<=  (+  (* 3 C1)  (* 2 C2)  (* 2 C3)  (* 1 C4)  (* 1 C5)  (* 1 C6)  (* 1 C7)  (* 1 C8)  (* 1 C9)  (* 1 C10) ) 852 )  (<=  (+  (* 3 C1)  (* 3 C2)  (* 2 C3)  (* 1 C4)  (* 1 C5)  (* 1 C6)  (* 1 C7)  (* 1 C8)  (* 1 C9)  (* 1 C10) ) 885 )  (<=  (+  (* 4 C1)  (* 3 C2)  (* 2 C3)  (* 1 C4)  (* 1 C5)  (* 1 C6)  (* 1 C7)  (* 1 C8)  (* 1 C9)  (* 1 C10) ) 960 )  (<=  (+  (* 4 C1)  (* 3 C2)  (* 2 C3)  (* 2 C4)  (* 1 C5)  (* 1 C6)  (* 1 C7)  (* 1 C8)  (* 1 C9)  (* 1 C10) ) 1180 )  (<=  (+  (* 5 C1)  (* 3 C2)  (* 2 C3)  (* 2 C4)  (* 1 C5)  (* 1 C6)  (* 1 C7)  (* 1 C8)  (* 1 C9)  (* 1 C10) ) 1237 )  (<=  (+  (* 5 C1)  (* 3 C2)  (* 2 C3)  (* 2 C4)  (* 2 C5)  (* 1 C6)  (* 1 C7)  (* 1 C8)  (* 1 C9)  (* 1 C10) ) 1238 )  (<=  (+  (* 5 C1)  (* 3 C2)  (* 2 C3)  (* 2 C4)  (* 2 C5)  (* 2 C6)  (* 1 C7)  (* 1 C8)  (* 1 C9)  (* 1 C10) ) 1278 )  (<=  (+  (* 5 C1)  (* 4 C2)  (* 2 C3)  (* 2 C4)  (* 2 C5)  (* 2 C6)  (* 1 C7)  (* 1 C8)  (* 1 C9)  (* 1 C10) ) 1320 )  (<=  (+  (* 5 C1)  (* 4 C2)  (* 3 C3)  (* 2 C4)  (* 2 C5)  (* 2 C6)  (* 1 C7)  (* 1 C8)  (* 1 C9)  (* 1 C10) ) 1475 )  (<=  (+  (* 6 C1)  (* 4 C2)  (* 3 C3)  (* 2 C4)  (* 2 C5)  (* 2 C6)  (* 1 C7)  (* 1 C8)  (* 1 C9)  (* 1 C10) ) 1704 )  (<=  (+  (* 6 C1)  (* 5 C2)  (* 3 C3)  (* 2 C4)  (* 2 C5)  (* 2 C6)  (* 1 C7)  (* 1 C8)  (* 1 C9)  (* 1 C10) ) 1770 )  (<=  (+  (* 7 C1)  (* 5 C2)  (* 3 C3)  (* 2 C4)  (* 2 C5)  (* 2 C6)  (* 1 C7)  (* 1 C8)  (* 1 C9)  (* 1 C10) ) 1920 )  (<=  (+  (* 7 C1)  (* 5 C2)  (* 3 C3)  (* 3 C4)  (* 2 C5)  (* 2 C6)  (* 1 C7)  (* 1 C8)  (* 1 C9)  (* 1 C10) ) 1980 )  (<=  (+  (* 7 C1)  (* 5 C2)  (* 4 C3)  (* 3 C4)  (* 2 C5)  (* 2 C6)  (* 1 C7)  (* 1 C8)  (* 1 C9)  (* 1 C10) ) 2039 )  (<=  (+  (* 7 C1)  (* 5 C2)  (* 4 C3)  (* 3 C4)  (* 2 C5)  (* 2 C6)  (* 2 C7)  (* 1 C8)  (* 1 C9)  (* 1 C10) ) 2065 )  (<=  (+  (* 8 C1)  (* 5 C2)  (* 4 C3)  (* 3 C4)  (* 2 C5)  (* 2 C6)  (* 2 C7)  (* 1 C8)  (* 1 C9)  (* 1 C10) ) 2115 )  (<=  (+  (* 8 C1)  (* 5 C2)  (* 4 C3)  (* 3 C4)  (* 2 C5)  (* 2 C6)  (* 2 C7)  (* 2 C8)  (* 1 C9)  (* 1 C10) ) 2130 )  (<=  (+  (* 8 C1)  (* 6 C2)  (* 4 C3)  (* 3 C4)  (* 2 C5)  (* 2 C6)  (* 2 C7)  (* 2 C8)  (* 1 C9)  (* 1 C10) ) 2360 )  (<=  (+  (* 9 C1)  (* 6 C2)  (* 4 C3)  (* 3 C4)  (* 2 C5)  (* 2 C6)  (* 2 C7)  (* 2 C8)  (* 1 C9)  (* 1 C10) ) 2474 )  (<=  (+  (* 9 C1)  (* 6 C2)  (* 4 C3)  (* 3 C4)  (* 3 C5)  (* 2 C6)  (* 2 C7)  (* 2 C8)  (* 1 C9)  (* 1 C10) ) 2476 )  (<=  (+  (* 9 C1)  (* 6 C2)  (* 4 C3)  (* 3 C4)  (* 3 C5)  (* 3 C6)  (* 2 C7)  (* 2 C8)  (* 1 C9)  (* 1 C10) ) 2556 )  (<=  (+  (* 9 C1)  (* 7 C2)  (* 4 C3)  (* 3 C4)  (* 3 C5)  (* 3 C6)  (* 2 C7)  (* 2 C8)  (* 1 C9)  (* 1 C10) ) 2591 )  (<=  (+  (* 9 C1)  (* 7 C2)  (* 4 C3)  (* 3 C4)  (* 3 C5)  (* 3 C6)  (* 2 C7)  (* 2 C8)  (* 2 C9)  (* 1 C10) ) 2640 )  (<=  (+  (* 9 C1)  (* 7 C2)  (* 5 C3)  (* 3 C4)  (* 3 C5)  (* 3 C6)  (* 2 C7)  (* 2 C8)  (* 2 C9)  (* 1 C10) ) 2655 )  (<=  (+  (* 10 C1)  (* 7 C2)  (* 5 C3)  (* 3 C4)  (* 3 C5)  (* 3 C6)  (* 2 C7)  (* 2 C8)  (* 2 C9)  (* 1 C10) ) 2880 )  (<=  (+  (* 10 C1)  (* 7 C2)  (* 5 C3)  (* 4 C4)  (* 3 C5)  (* 3 C6)  (* 2 C7)  (* 2 C8)  (* 2 C9)  (* 1 C10) ) 2950 )  (<=  (+  (* 11 C1)  (* 7 C2)  (* 5 C3)  (* 4 C4)  (* 3 C5)  (* 3 C6)  (* 2 C7)  (* 2 C8)  (* 2 C9)  (* 1 C10) ) 2982 )  (<=  (+  (* 11 C1)  (* 8 C2)  (* 5 C3)  (* 4 C4)  (* 3 C5)  (* 3 C6)  (* 2 C7)  (* 2 C8)  (* 2 C9)  (* 1 C10) ) 3245 )  (<=  (+  (* 12 C1)  (* 8 C2)  (* 5 C3)  (* 4 C4)  (* 3 C5)  (* 3 C6)  (* 2 C7)  (* 2 C8)  (* 2 C9)  (* 1 C10) ) 3300 )  (<=  (+  (* 12 C1)  (* 8 C2)  (* 6 C3)  (* 4 C4)  (* 3 C5)  (* 3 C6)  (* 2 C7)  (* 2 C8)  (* 2 C9)  (* 1 C10) ) 3408 )  (<=  (+  (* 12 C1)  (* 9 C2)  (* 6 C3)  (* 4 C4)  (* 3 C5)  (* 3 C6)  (* 2 C7)  (* 2 C8)  (* 2 C9)  (* 1 C10) ) 3540 )  (<=  (+  (* 13 C1)  (* 9 C2)  (* 6 C3)  (* 4 C4)  (* 3 C5)  (* 3 C6)  (* 2 C7)  (* 2 C8)  (* 2 C9)  (* 1 C10) ) 3711 )  (<=  (+  (* 13 C1)  (* 9 C2)  (* 6 C3)  (* 4 C4)  (* 4 C5)  (* 3 C6)  (* 2 C7)  (* 2 C8)  (* 2 C9)  (* 1 C10) ) 3714 )  (<=  (+  (* 13 C1)  (* 9 C2)  (* 6 C3)  (* 4 C4)  (* 4 C5)  (* 4 C6)  (* 2 C7)  (* 2 C8)  (* 2 C9)  (* 1 C10) ) 3834 )  (<=  (+  (* 13 C1)  (* 10 C2)  (* 6 C3)  (* 4 C4)  (* 4 C5)  (* 4 C6)  (* 2 C7)  (* 2 C8)  (* 2 C9)  (* 1 C10) ) 3835 )  (<=  (+  (* 14 C1)  (* 10 C2)  (* 6 C3)  (* 4 C4)  (* 4 C5)  (* 4 C6)  (* 2 C7)  (* 2 C8)  (* 2 C9)  (* 1 C10) ) 3840 )  (<=  (+  (* 14 C1)  (* 10 C2)  (* 6 C3)  (* 5 C4)  (* 4 C5)  (* 4 C6)  (* 2 C7)  (* 2 C8)  (* 2 C9)  (* 1 C10) ) 3960 )  (<=  (+  (* 14 C1)  (* 10 C2)  (* 7 C3)  (* 5 C4)  (* 4 C5)  (* 4 C6)  (* 2 C7)  (* 2 C8)  (* 2 C9)  (* 1 C10) ) 4078 )  (<=  (+  (* 14 C1)  (* 10 C2)  (* 7 C3)  (* 5 C4)  (* 4 C5)  (* 4 C6)  (* 3 C7)  (* 2 C8)  (* 2 C9)  (* 1 C10) ) 4130 )  (<=  (+  (* 15 C1)  (* 10 C2)  (* 7 C3)  (* 5 C4)  (* 4 C5)  (* 4 C6)  (* 3 C7)  (* 2 C8)  (* 2 C9)  (* 1 C10) ) 4230 )  (<=  (+  (* 15 C1)  (* 10 C2)  (* 7 C3)  (* 5 C4)  (* 4 C5)  (* 4 C6)  (* 3 C7)  (* 3 C8)  (* 2 C9)  (* 1 C10) ) 4260 )  (<=  (+  (* 15 C1)  (* 11 C2)  (* 7 C3)  (* 5 C4)  (* 4 C5)  (* 4 C6)  (* 3 C7)  (* 3 C8)  (* 2 C9)  (* 1 C10) ) 4425 )  (<=  (+  (* 16 C1)  (* 11 C2)  (* 7 C3)  (* 5 C4)  (* 4 C5)  (* 4 C6)  (* 3 C7)  (* 3 C8)  (* 2 C9)  (* 1 C10) ) 4519 ) ) ( or  (<=  (+  (* 1 C1)  (* 1 C2)  (* 1 C3)  (* 1 C4)  (* 1 C5)  (* 1 C6)  (* 1 C7)  (* 1 C8)  (* 1 C9) ) 295 )  (<=  (+  (* 2 C1)  (* 1 C2)  (* 1 C3)  (* 1 C4)  (* 1 C5)  (* 1 C6)  (* 1 C7)  (* 1 C8)  (* 1 C9) ) 426 )  (<=  (+  (* 2 C1)  (* 2 C2)  (* 1 C3)  (* 1 C4)  (* 1 C5)  (* 1 C6)  (* 1 C7)  (* 1 C8)  (* 1 C9) ) 590 )  (<=  (+  (* 3 C1)  (* 2 C2)  (* 1 C3)  (* 1 C4)  (* 1 C5)  (* 1 C6)  (* 1 C7)  (* 1 C8)  (* 1 C9) ) 660 )  (<=  (+  (* 3 C1)  (* 2 C2)  (* 2 C3)  (* 1 C4)  (* 1 C5)  (* 1 C6)  (* 1 C7)  (* 1 C8)  (* 1 C9) ) 852 )  (<=  (+  (* 3 C1)  (* 3 C2)  (* 2 C3)  (* 1 C4)  (* 1 C5)  (* 1 C6)  (* 1 C7)  (* 1 C8)  (* 1 C9) ) 885 )  (<=  (+  (* 4 C1)  (* 3 C2)  (* 2 C3)  (* 1 C4)  (* 1 C5)  (* 1 C6)  (* 1 C7)  (* 1 C8)  (* 1 C9) ) 960 )  (<=  (+  (* 4 C1)  (* 3 C2)  (* 2 C3)  (* 2 C4)  (* 1 C5)  (* 1 C6)  (* 1 C7)  (* 1 C8)  (* 1 C9) ) 1180 )  (<=  (+  (* 5 C1)  (* 3 C2)  (* 2 C3)  (* 2 C4)  (* 1 C5)  (* 1 C6)  (* 1 C7)  (* 1 C8)  (* 1 C9) ) 1237 )  (<=  (+  (* 5 C1)  (* 3 C2)  (* 2 C3)  (* 2 C4)  (* 2 C5)  (* 1 C6)  (* 1 C7)  (* 1 C8)  (* 1 C9) ) 1238 )  (<=  (+  (* 5 C1)  (* 3 C2)  (* 2 C3)  (* 2 C4)  (* 2 C5)  (* 2 C6)  (* 1 C7)  (* 1 C8)  (* 1 C9) ) 1278 )  (<=  (+  (* 5 C1)  (* 4 C2)  (* 2 C3)  (* 2 C4)  (* 2 C5)  (* 2 C6)  (* 1 C7)  (* 1 C8)  (* 1 C9) ) 1320 )  (<=  (+  (* 5 C1)  (* 4 C2)  (* 3 C3)  (* 2 C4)  (* 2 C5)  (* 2 C6)  (* 1 C7)  (* 1 C8)  (* 1 C9) ) 1475 )  (<=  (+  (* 6 C1)  (* 4 C2)  (* 3 C3)  (* 2 C4)  (* 2 C5)  (* 2 C6)  (* 1 C7)  (* 1 C8)  (* 1 C9) ) 1704 )  (<=  (+  (* 6 C1)  (* 5 C2)  (* 3 C3)  (* 2 C4)  (* 2 C5)  (* 2 C6)  (* 1 C7)  (* 1 C8)  (* 1 C9) ) 1770 )  (<=  (+  (* 7 C1)  (* 5 C2)  (* 3 C3)  (* 2 C4)  (* 2 C5)  (* 2 C6)  (* 1 C7)  (* 1 C8)  (* 1 C9) ) 1920 )  (<=  (+  (* 7 C1)  (* 5 C2)  (* 3 C3)  (* 3 C4)  (* 2 C5)  (* 2 C6)  (* 1 C7)  (* 1 C8)  (* 1 C9) ) 1980 )  (<=  (+  (* 7 C1)  (* 5 C2)  (* 4 C3)  (* 3 C4)  (* 2 C5)  (* 2 C6)  (* 1 C7)  (* 1 C8)  (* 1 C9) ) 2039 )  (<=  (+  (* 7 C1)  (* 5 C2)  (* 4 C3)  (* 3 C4)  (* 2 C5)  (* 2 C6)  (* 2 C7)  (* 1 C8)  (* 1 C9) ) 2065 )  (<=  (+  (* 8 C1)  (* 5 C2)  (* 4 C3)  (* 3 C4)  (* 2 C5)  (* 2 C6)  (* 2 C7)  (* 1 C8)  (* 1 C9) ) 2115 )  (<=  (+  (* 8 C1)  (* 5 C2)  (* 4 C3)  (* 3 C4)  (* 2 C5)  (* 2 C6)  (* 2 C7)  (* 2 C8)  (* 1 C9) ) 2130 )  (<=  (+  (* 8 C1)  (* 6 C2)  (* 4 C3)  (* 3 C4)  (* 2 C5)  (* 2 C6)  (* 2 C7)  (* 2 C8)  (* 1 C9) ) 2360 )  (<=  (+  (* 9 C1)  (* 6 C2)  (* 4 C3)  (* 3 C4)  (* 2 C5)  (* 2 C6)  (* 2 C7)  (* 2 C8)  (* 1 C9) ) 2474 )  (<=  (+  (* 9 C1)  (* 6 C2)  (* 4 C3)  (* 3 C4)  (* 3 C5)  (* 2 C6)  (* 2 C7)  (* 2 C8)  (* 1 C9) ) 2476 )  (<=  (+  (* 9 C1)  (* 6 C2)  (* 4 C3)  (* 3 C4)  (* 3 C5)  (* 3 C6)  (* 2 C7)  (* 2 C8)  (* 1 C9) ) 2556 )  (<=  (+  (* 9 C1)  (* 7 C2)  (* 4 C3)  (* 3 C4)  (* 3 C5)  (* 3 C6)  (* 2 C7)  (* 2 C8)  (* 1 C9) ) 2591 ) ) ( or  (<=  (+  (* 1 C1)  (* 1 C2)  (* 1 C3)  (* 1 C4)  (* 1 C5)  (* 1 C6)  (* 1 C7)  (* 1 C8) ) 295 )  (<=  (+  (* 2 C1)  (* 1 C2)  (* 1 C3)  (* 1 C4)  (* 1 C5)  (* 1 C6)  (* 1 C7)  (* 1 C8) ) 426 )  (<=  (+  (* 2 C1)  (* 2 C2)  (* 1 C3)  (* 1 C4)  (* 1 C5)  (* 1 C6)  (* 1 C7)  (* 1 C8) ) 590 )  (<=  (+  (* 3 C1)  (* 2 C2)  (* 1 C3)  (* 1 C4)  (* 1 C5)  (* 1 C6)  (* 1 C7)  (* 1 C8) ) 660 )  (<=  (+  (* 3 C1)  (* 2 C2)  (* 2 C3)  (* 1 C4)  (* 1 C5)  (* 1 C6)  (* 1 C7)  (* 1 C8) ) 852 )  (<=  (+  (* 3 C1)  (* 3 C2)  (* 2 C3)  (* 1 C4)  (* 1 C5)  (* 1 C6)  (* 1 C7)  (* 1 C8) ) 885 )  (<=  (+  (* 4 C1)  (* 3 C2)  (* 2 C3)  (* 1 C4)  (* 1 C5)  (* 1 C6)  (* 1 C7)  (* 1 C8) ) 960 )  (<=  (+  (* 4 C1)  (* 3 C2)  (* 2 C3)  (* 2 C4)  (* 1 C5)  (* 1 C6)  (* 1 C7)  (* 1 C8) ) 1180 )  (<=  (+  (* 5 C1)  (* 3 C2)  (* 2 C3)  (* 2 C4)  (* 1 C5)  (* 1 C6)  (* 1 C7)  (* 1 C8) ) 1237 )  (<=  (+  (* 5 C1)  (* 3 C2)  (* 2 C3)  (* 2 C4)  (* 2 C5)  (* 1 C6)  (* 1 C7)  (* 1 C8) ) 1238 )  (<=  (+  (* 5 C1)  (* 3 C2)  (* 2 C3)  (* 2 C4)  (* 2 C5)  (* 2 C6)  (* 1 C7)  (* 1 C8) ) 1278 )  (<=  (+  (* 5 C1)  (* 4 C2)  (* 2 C3)  (* 2 C4)  (* 2 C5)  (* 2 C6)  (* 1 C7)  (* 1 C8) ) 1320 )  (<=  (+  (* 5 C1)  (* 4 C2)  (* 3 C3)  (* 2 C4)  (* 2 C5)  (* 2 C6)  (* 1 C7)  (* 1 C8) ) 1475 )  (<=  (+  (* 6 C1)  (* 4 C2)  (* 3 C3)  (* 2 C4)  (* 2 C5)  (* 2 C6)  (* 1 C7)  (* 1 C8) ) 1704 )  (<=  (+  (* 6 C1)  (* 5 C2)  (* 3 C3)  (* 2 C4)  (* 2 C5)  (* 2 C6)  (* 1 C7)  (* 1 C8) ) 1770 )  (<=  (+  (* 7 C1)  (* 5 C2)  (* 3 C3)  (* 2 C4)  (* 2 C5)  (* 2 C6)  (* 1 C7)  (* 1 C8) ) 1920 )  (<=  (+  (* 7 C1)  (* 5 C2)  (* 3 C3)  (* 3 C4)  (* 2 C5)  (* 2 C6)  (* 1 C7)  (* 1 C8) ) 1980 )  (<=  (+  (* 7 C1)  (* 5 C2)  (* 4 C3)  (* 3 C4)  (* 2 C5)  (* 2 C6)  (* 1 C7)  (* 1 C8) ) 2039 )  (<=  (+  (* 7 C1)  (* 5 C2)  (* 4 C3)  (* 3 C4)  (* 2 C5)  (* 2 C6)  (* 2 C7)  (* 1 C8) ) 2065 )  (<=  (+  (* 8 C1)  (* 5 C2)  (* 4 C3)  (* 3 C4)  (* 2 C5)  (* 2 C6)  (* 2 C7)  (* 1 C8) ) 2115 ) ) ( or  (<=  (+  (* 1 C1)  (* 1 C2)  (* 1 C3)  (* 1 C4)  (* 1 C5)  (* 1 C6)  (* 1 C7) ) 295 )  (<=  (+  (* 2 C1)  (* 1 C2)  (* 1 C3)  (* 1 C4)  (* 1 C5)  (* 1 C6)  (* 1 C7) ) 426 )  (<=  (+  (* 2 C1)  (* 2 C2)  (* 1 C3)  (* 1 C4)  (* 1 C5)  (* 1 C6)  (* 1 C7) ) 590 )  (<=  (+  (* 3 C1)  (* 2 C2)  (* 1 C3)  (* 1 C4)  (* 1 C5)  (* 1 C6)  (* 1 C7) ) 660 )  (<=  (+  (* 3 C1)  (* 2 C2)  (* 2 C3)  (* 1 C4)  (* 1 C5)  (* 1 C6)  (* 1 C7) ) 852 )  (<=  (+  (* 3 C1)  (* 3 C2)  (* 2 C3)  (* 1 C4)  (* 1 C5)  (* 1 C6)  (* 1 C7) ) 885 )  (<=  (+  (* 4 C1)  (* 3 C2)  (* 2 C3)  (* 1 C4)  (* 1 C5)  (* 1 C6)  (* 1 C7) ) 960 )  (<=  (+  (* 4 C1)  (* 3 C2)  (* 2 C3)  (* 2 C4)  (* 1 C5)  (* 1 C6)  (* 1 C7) ) 1180 )  (<=  (+  (* 5 C1)  (* 3 C2)  (* 2 C3)  (* 2 C4)  (* 1 C5)  (* 1 C6)  (* 1 C7) ) 1237 )  (<=  (+  (* 5 C1)  (* 3 C2)  (* 2 C3)  (* 2 C4)  (* 2 C5)  (* 1 C6)  (* 1 C7) ) 1238 )  (<=  (+  (* 5 C1)  (* 3 C2)  (* 2 C3)  (* 2 C4)  (* 2 C5)  (* 2 C6)  (* 1 C7) ) 1278 )  (<=  (+  (* 5 C1)  (* 4 C2)  (* 2 C3)  (* 2 C4)  (* 2 C5)  (* 2 C6)  (* 1 C7) ) 1320 )  (<=  (+  (* 5 C1)  (* 4 C2)  (* 3 C3)  (* 2 C4)  (* 2 C5)  (* 2 C6)  (* 1 C7) ) 1475 )  (<=  (+  (* 6 C1)  (* 4 C2)  (* 3 C3)  (* 2 C4)  (* 2 C5)  (* 2 C6)  (* 1 C7) ) 1704 )  (<=  (+  (* 6 C1)  (* 5 C2)  (* 3 C3)  (* 2 C4)  (* 2 C5)  (* 2 C6)  (* 1 C7) ) 1770 )  (<=  (+  (* 7 C1)  (* 5 C2)  (* 3 C3)  (* 2 C4)  (* 2 C5)  (* 2 C6)  (* 1 C7) ) 1920 )  (<=  (+  (* 7 C1)  (* 5 C2)  (* 3 C3)  (* 3 C4)  (* 2 C5)  (* 2 C6)  (* 1 C7) ) 1980 )  (<=  (+  (* 7 C1)  (* 5 C2)  (* 4 C3)  (* 3 C4)  (* 2 C5)  (* 2 C6)  (* 1 C7) ) 2039 ) ) ( or  (<=  (+  (* 1 C1)  (* 1 C2)  (* 1 C3)  (* 1 C4)  (* 1 C5)  (* 1 C6) ) 295 )  (<=  (+  (* 2 C1)  (* 1 C2)  (* 1 C3)  (* 1 C4)  (* 1 C5)  (* 1 C6) ) 426 )  (<=  (+  (* 2 C1)  (* 2 C2)  (* 1 C3)  (* 1 C4)  (* 1 C5)  (* 1 C6) ) 590 )  (<=  (+  (* 3 C1)  (* 2 C2)  (* 1 C3)  (* 1 C4)  (* 1 C5)  (* 1 C6) ) 660 )  (<=  (+  (* 3 C1)  (* 2 C2)  (* 2 C3)  (* 1 C4)  (* 1 C5)  (* 1 C6) ) 852 )  (<=  (+  (* 3 C1)  (* 3 C2)  (* 2 C3)  (* 1 C4)  (* 1 C5)  (* 1 C6) ) 885 )  (<=  (+  (* 4 C1)  (* 3 C2)  (* 2 C3)  (* 1 C4)  (* 1 C5)  (* 1 C6) ) 960 )  (<=  (+  (* 4 C1)  (* 3 C2)  (* 2 C3)  (* 2 C4)  (* 1 C5)  (* 1 C6) ) 1180 )  (<=  (+  (* 5 C1)  (* 3 C2)  (* 2 C3)  (* 2 C4)  (* 1 C5)  (* 1 C6) ) 1237 )  (<=  (+  (* 5 C1)  (* 3 C2)  (* 2 C3)  (* 2 C4)  (* 2 C5)  (* 1 C6) ) 1238 ) ) ( or  (<=  (+  (* 1 C1)  (* 1 C2)  (* 1 C3)  (* 1 C4)  (* 1 C5) ) 295 )  (<=  (+  (* 2 C1)  (* 1 C2)  (* 1 C3)  (* 1 C4)  (* 1 C5) ) 426 )  (<=  (+  (* 2 C1)  (* 2 C2)  (* 1 C3)  (* 1 C4)  (* 1 C5) ) 590 )  (<=  (+  (* 3 C1)  (* 2 C2)  (* 1 C3)  (* 1 C4)  (* 1 C5) ) 660 )  (<=  (+  (* 3 C1)  (* 2 C2)  (* 2 C3)  (* 1 C4)  (* 1 C5) ) 852 )  (<=  (+  (* 3 C1)  (* 3 C2)  (* 2 C3)  (* 1 C4)  (* 1 C5) ) 885 )  (<=  (+  (* 4 C1)  (* 3 C2)  (* 2 C3)  (* 1 C4)  (* 1 C5) ) 960 )  (<=  (+  (* 4 C1)  (* 3 C2)  (* 2 C3)  (* 2 C4)  (* 1 C5) ) 1180 )  (<=  (+  (* 5 C1)  (* 3 C2)  (* 2 C3)  (* 2 C4)  (* 1 C5) ) 1237 ) ) ( or  (<=  (+  (* 1 C1)  (* 1 C2)  (* 1 C3)  (* 1 C4) ) 295 )  (<=  (+  (* 2 C1)  (* 1 C2)  (* 1 C3)  (* 1 C4) ) 426 )  (<=  (+  (* 2 C1)  (* 2 C2)  (* 1 C3)  (* 1 C4) ) 590 )  (<=  (+  (* 3 C1)  (* 2 C2)  (* 1 C3)  (* 1 C4) ) 660 )  (<=  (+  (* 3 C1)  (* 2 C2)  (* 2 C3)  (* 1 C4) ) 852 )  (<=  (+  (* 3 C1)  (* 3 C2)  (* 2 C3)  (* 1 C4) ) 885 )  (<=  (+  (* 4 C1)  (* 3 C2)  (* 2 C3)  (* 1 C4) ) 960 ) ) ( or  (<=  (+  (* 1 C1)  (* 1 C2)  (* 1 C3) ) 295 )  (<=  (+  (* 2 C1)  (* 1 C2)  (* 1 C3) ) 426 )  (<=  (+  (* 2 C1)  (* 2 C2)  (* 1 C3) ) 590 )  (<=  (+  (* 3 C1)  (* 2 C2)  (* 1 C3) ) 660 ) ) ( or  (<=  (+  (* 1 C1)  (* 1 C2) ) 295 )  (<=  (+  (* 2 C1)  (* 1 C2) ) 426 ) ) ( or  (<=  (* 1 C1)  295 ) )  (and (>= C1 2) (>= C2 4) (>= C3 6) (>= C4 9) (>= C5 12) (>= C6 12) (>= C7 20) (>= C8 21) (>= C9 25) (>= C10 45) )  (and (<= C1 173) (<= C2 250) (<= C3 388) (<= C4 565) (<= C5 728) (<= C6 729) (<= C7 1200) (<= C8 1245) (<= C9 1525) (<= C10 2661) ) (= y (+ (/ C1 295) (/ C2 426) (/ C3 660) (/ C4 960) (/ C5 1237) (/ C6 1238) (/ C7 2039) (/ C8 2115) (/ C9 2591) (/ C10 4519) )) ))
(maximize y)
(check-sat)
